NAME : mr37
COMMENT : 37-city problem (DISC)
TYPE : TSP
DIMENSION : 37
EDGE_WEIGHT_TYPE : EUC_2D
NODE_COORD_SECTION
1 95 2
2 47 81
3 20 41
4 59 1
5 63 47
6 69 34
7 11 54
8 75 94
9 29 88
10 76 76
11 80 47
12 63 71
13 45 4
14 97 68
15 90 42
16 20 91
17 60 95
18 58 98
19 71 59
20 93 98
21 6 59
22 14 34
23 12 48
24 37 45
25 81 74
26 98 63
27 34 87
28 48 34
29 18 70
30 91 42
31 77 21
32 20 4
33 37 60
34 60 94
35 5 97
36 83 85
37 65 93
EOF
